Solver command line: ['/usr/local/bin/gurobi.sh']

Set parameter WLSAccessID
Set parameter WLSSecret
Set parameter LicenseID to value 2606900
Academic license 2606900 - for non-commercial use only - registered to so___@htwk-leipzig.de
Read LP format model from file /var/folders/jf/5sh4zzv94dxbcz8g7tg2jq5h0000gn/T/tmpb2xco4yh.pyomo.lp
Reading time = 2.10 seconds
objective: 970608 rows, 878399 columns, 2138862 nonzeros
Set parameter MIPGap to value 0.02
Gurobi Optimizer version 12.0.1 build v12.0.1rc0 (mac64[rosetta2] - Darwin 24.4.0 24E263)

CPU model: Apple M3
Thread count: 8 physical cores, 8 logical processors, using up to 8 threads

Non-default parameters:
MIPGap  0.02

Academic license 2606900 - for non-commercial use only - registered to so___@htwk-leipzig.de
Optimize a model with 970608 rows, 878399 columns and 2138862 nonzeros
Model fingerprint: 0x9136234c
Model has 8783 quadratic constraints
Variable types: 755424 continuous, 122975 integer (105408 binary)
Coefficient statistics:
  Matrix range     [6e-03, 2e+02]
  QMatrix range    [1e+00, 1e+00]
  Objective range  [1e-02, 4e+02]
  Bounds range     [1e+00, 3e+00]
  RHS range        [8e-05, 1e+04]
Presolve removed 776470 rows and 657904 columns
Presolve time: 0.45s
Presolved: 194138 rows, 220495 columns, 614221 nonzeros
Variable types: 145809 continuous, 74686 integer (65902 binary)
Performing another presolve...
Presolve removed 70271 rows and 70271 columns (presolve time = 5s)...
Presolve removed 70271 rows and 70271 columns
Presolve time: 5.09s
Deterministic concurrent LP optimizer: primal and dual simplex
Showing primal log only...


Root simplex log...

Iteration    Objective       Primal Inf.    Dual Inf.      Time
       0    1.3348908e+08   8.864151e+05   5.135618e+13      7s
Concurrent spin time: 0.00s

Solved with dual simplex

Root simplex log...

Iteration    Objective       Primal Inf.    Dual Inf.      Time
   75066    1.2712083e+08   0.000000e+00   0.000000e+00      9s

Root relaxation: objective 1.271208e+08, 75066 iterations, 3.14 seconds (5.57 work units)
Total elapsed time = 9.41s (DegenMoves)

    Nodes    |    Current Node    |     Objective Bounds      |     Work
 Expl Unexpl |  Obj  Depth IntInf | Incumbent    BestBd   Gap | It/Node Time

     0     0 1.2712e+08    0  222          - 1.2712e+08      -     -   10s
H    0     0                    1.272890e+08 1.2712e+08  0.13%     -   11s

Explored 1 nodes (79485 simplex iterations) in 11.89 seconds (21.82 work units)
Thread count was 8 (of 8 available processors)

Solution count 1: 1.27289e+08 

Optimal solution found (tolerance 2.00e-02)
Best objective 1.272890117886e+08, best bound 1.271208256628e+08, gap 0.1321%

